80
1578
4
57
52
63
24
0 1
0 2
0 7
0 8
0 9
0 10
0 11
0 12
0 16
0 18
0 21
0 22
0 24
0 25
0 28
0 34
0 38
0 42
0 43
0 46
0 48
0 51
0 52
0 53
0 55
0 58
0 62
0 64
0 65
0 67
0 69
0 70
0 71
0 72
0 73
0 76
0 79
1 4
1 5
1 6
1 7
1 8
1 9
1 10
1 11
1 12
1 14
1 15
1 17
1 19
1 20
1 22
1 26
1 28
1 29
1 30
1 35
1 42
1 43
1 44
1 49
1 50
1 51
1 53
1 54
1 56
1 57
1 58
1 59
1 61
1 62
1 63
1 65
1 70
1 71
1 72
1 73
1 74
1 75
1 77
1 79
2 3
2 6
2 7
2 8
2 10
2 11
2 12
2 14
2 15
2 19
2 20
2 22
2 24
2 26
2 27
2 28
2 29
2 31
2 33
2 36
2 40
2 42
2 43
2 44
2 46
2 47
2 48
2 49
2 50
2 53
2 58
2 59
2 60
2 61
2 63
2 64
2 66
2 68
2 70
2 72
2 73
2 75
2 76
2 78
3 9
3 15
3 16
3 21
3 23
3 25
3 26
3 29
3 32
3 35
3 41
3 42
3 46
3 47
3 49
3 51
3 52
3 53
3 55
3 59
3 61
3 62
3 68
3 72
3 73
3 74
3 75
3 76
3 79
4 5
4 6
4 7
4 9
4 10
4 11
4 12
4 16
4 17
4 18
4 19
4 25
4 26
4 30
4 31
4 33
4 34
4 35
4 36
4 39
4 40
4 41
4 42
4 43
4 45
4 47
4 49
4 50
4 51
4 53
4 55
4 62
4 64
4 69
4 70
4 71
4 72
4 73
4 74
4 75
4 76
4 78
5 9
5 11
5 14
5 16
5 17
5 19
5 20
5 21
5 23
5 24
5 28
5 30
5 31
5 32
5 33
5 35
5 38
5 41
5 42
5 45
5 48
5 51
5 52
5 56
5 58
5 61
5 65
5 69
5 72
5 76
5 77
5 78
5 79
6 8
6 9
6 10
6 11
6 12
6 13
6 16
6 19
6 22
6 24
6 25
6 30
6 32
6 37
6 38
6 39
6 42
6 43
6 46
6 48
6 50
6 51
6 53
6 56
6 57
6 59
6 60
6 61
6 63
6 64
6 65
6 66
6 67
6 71
6 73
6 74
6 76
6 78
6 79
7 9
7 10
7 12
7 14
7 16
7 24
7 26
7 27
7 28
7 29
7 30
7 32
7 34
7 36
7 38
7 40
7 42
7 44
7 45
7 46
7 47
7 48
7 51
7 52
7 56
7 61
7 62
7 63
7 72
7 77
7 79
8 9
8 10
8 11
8 13
8 16
8 20
8 21
8 22
8 25
8 26
8 28
8 29
8 30
8 34
8 35
8 37
8 39
8 41
8 42
8 43
8 44
8 45
8 47
8 50
8 52
8 55
8 56
8 58
8 61
8 63
8 65
8 66
8 67
8 68
8 69
8 70
8 72
8 73
8 74
8 77
8 78
9 11
9 14
9 15
9 16
9 19
9 21
9 23
9 25
9 26
9 28
9 29
9 31
9 34
9 36
9 37
9 38
9 40
9 43
9 44
9 45
9 48
9 50
9 52
9 56
9 58
9 59
9 60
9 61
9 62
9 64
9 65
9 66
9 68
9 70
9 71
9 73
9 74
9 76
9 79
10 13
10 18
10 21
10 23
10 28
10 31
10 32
10 33
10 35
10 36
10 37
10 38
10 39
10 41
10 43
10 47
10 50
10 51
10 52
10 53
10 56
10 59
10 62
10 63
10 64
10 65
10 68
10 75
10 77
11 12
11 15
11 16
11 18
11 19
11 20
11 24
11 25
11 26
11 27
11 31
11 34
11 37
11 40
11 41
11 47
11 50
11 52
11 53
11 55
11 57
11 60
11 62
11 63
11 64
11 67
11 70
11 72
11 75
11 76
11 77
11 78
11 79
12 13
12 15
12 16
12 19
12 20
12 21
12 27
12 28
12 29
12 30
12 32
12 33
12 37
12 38
12 42
12 44
12 46
12 48
12 50
12 52
12 53
12 57
12 67
12 68
12 74
12 75
12 76
12 79
13 17
13 25
13 26
13 27
13 28
13 31
13 34
13 35
13 37
13 38
13 40
13 45
13 46
13 47
13 48
13 49
13 50
13 51
13 52
13 55
13 56
13 57
13 63
13 64
13 65
13 67
13 69
13 70
13 73
13 74
13 75
13 76
13 77
13 78
14 15
14 18
14 20
14 21
14 23
14 26
14 30
14 37
14 38
14 39
14 42
14 44
14 46
14 50
14 51
14 53
14 55
14 56
14 58
14 60
14 61
14 63
14 64
14 66
14 67
14 70
14 71
14 72
14 74
14 75
14 77
14 79
15 17
15 18
15 21
15 25
15 28
15 31
15 33
15 35
15 36
15 39
15 41
15 42
15 47
15 53
15 54
15 56
15 59
15 60
15 61
15 64
15 65
15 66
15 69
15 71
15 72
15 75
15 76
15 79
16 20
16 22
16 23
16 25
16 27
16 28
16 31
16 36
16 37
16 39
16 41
16 42
16 44
16 46
16 47
16 49
16 52
16 54
16 56
16 57
16 58
16 62
16 67
16 74
16 79
17 18
17 20
17 23
17 24
17 25
17 26
17 27
17 28
17 29
17 30
17 31
17 33
17 35
17 39
17 40
17 43
17 44
17 45
17 46
17 51
17 53
17 55
17 56
17 61
17 62
17 63
17 64
17 65
17 67
17 68
17 69
17 70
17 73
17 75
17 76
17 79
18 21
18 23
18 24
18 25
18 27
18 28
18 30
18 36
18 37
18 38
18 39
18 42
18 45
18 49
18 51
18 52
18 55
18 56
18 57
18 60
18 61
18 65
18 66
18 70
18 72
18 73
18 77
18 78
19 20
19 21
19 23
19 25
19 27
19 29
19 34
19 36
19 39
19 40
19 41
19 42
19 48
19 52
19 54
19 55
19 62
19 65
19 67
19 70
19 73
19 75
19 76
19 77
19 79
20 27
20 28
20 32
20 34
20 40
20 41
20 42
20 43
20 44
20 45
20 46
20 47
20 48
20 52
20 55
20 56
20 57
20 58
20 59
20 63
20 67
20 69
20 70
20 76
20 77
21 23
21 25
21 26
21 29
21 31
21 32
21 33
21 34
21 35
21 36
21 37
21 43
21 44
21 46
21 47
21 51
21 53
21 54
21 63
21 64
21 67
21 68
21 72
21 74
21 75
21 77
22 25
22 26
22 36
22 37
22 38
22 40
22 42
22 45
22 49
22 50
22 51
22 57
22 58
22 59
22 60
22 66
22 70
22 72
22 73
22 75
22 76
22 79
23 24
23 25
23 27
23 30
23 31
23 32
23 35
23 37
23 43
23 44
23 48
23 49
23 54
23 55
23 56
23 57
23 58
23 60
23 62
23 64
23 66
23 69
23 70
23 71
23 72
23 74
23 75
23 77
23 79
24 25
24 26
24 28
24 29
24 30
24 35
24 36
24 37
24 39
24 42
24 43
24 44
24 45
24 46
24 48
24 49
24 50
24 52
24 53
24 54
24 57
24 61
24 62
24 64
24 68
24 69
24 74
24 76
24 79
25 26
25 27
25 30
25 33
25 35
25 37
25 40
25 43
25 44
25 45
25 46
25 47
25 55
25 57
25 60
25 61
25 64
25 65
25 67
25 70
25 71
25 72
25 73
25 74
25 75
25 77
25 78
25 79
26 30
26 31
26 38
26 39
26 40
26 44
26 48
26 49
26 53
26 54
26 55
26 60
26 63
26 65
26 69
26 72
26 74
26 75
26 77
26 79
27 29
27 30
27 33
27 34
27 37
27 39
27 41
27 42
27 43
27 45
27 48
27 49
27 53
27 56
27 57
27 58
27 60
27 62
27 64
27 65
27 66
27 69
27 71
27 73
27 75
27 76
27 77
27 78
27 79
28 33
28 34
28 36
28 38
28 40
28 41
28 42
28 46
28 47
28 49
28 50
28 53
28 54
28 58
28 59
28 60
28 66
28 67
28 68
28 69
28 71
28 73
28 76
29 30
29 31
29 32
29 35
29 36
29 38
29 39
29 41
29 42
29 43
29 44
29 47
29 48
29 49
29 50
29 51
29 54
29 57
29 58
29 59
29 60
29 61
29 62
29 63
29 66
29 68
29 69
29 72
29 79
30 32
30 35
30 36
30 40
30 41
30 42
30 43
30 44
30 45
30 46
30 50
30 52
30 54
30 57
30 58
30 62
30 65
30 69
30 70
30 72
30 73
30 74
30 75
30 76
30 77
30 78
31 32
31 33
31 34
31 35
31 37
31 38
31 40
31 41
31 42
31 44
31 47
31 48
31 49
31 51
31 52
31 53
31 57
31 58
31 59
31 60
31 61
31 65
31 66
31 67
31 68
31 69
31 71
31 73
31 76
31 78
32 33
32 36
32 38
32 42
32 43
32 49
32 50
32 52
32 55
32 58
32 65
32 66
32 68
32 69
32 73
32 76
32 77
32 78
32 79
33 34
33 36
33 37
33 38
33 39
33 43
33 46
33 48
33 51
33 52
33 59
33 60
33 62
33 63
33 64
33 66
33 68
33 69
33 73
33 74
33 75
34 35
34 38
34 40
34 41
34 42
34 43
34 44
34 46
34 50
34 54
34 56
34 57
34 58
34 59
34 60
34 61
34 62
34 65
34 66
34 67
34 69
34 70
34 71
34 72
34 73
34 76
34 77
35 36
35 37
35 38
35 39
35 41
35 42
35 43
35 44
35 46
35 51
35 53
35 56
35 58
35 60
35 61
35 63
35 64
35 67
35 68
35 69
35 72
35 73
35 74
35 76
35 78
35 79
36 37
36 40
36 43
36 44
36 45
36 46
36 47
36 50
36 51
36 53
36 56
36 59
36 60
36 61
36 63
36 65
36 71
36 72
36 73
36 74
36 75
36 77
36 79
37 42
37 44
37 45
37 47
37 48
37 49
37 50
37 51
37 52
37 55
37 56
37 57
37 64
37 65
37 66
37 67
37 68
37 69
37 70
37 71
37 74
37 75
37 77
37 79
38 41
38 42
38 43
38 46
38 48
38 49
38 50
38 52
38 55
38 56
38 59
38 62
38 64
38 65
38 68
38 69
38 71
38 72
38 73
38 76
38 77
38 79
39 43
39 44
39 46
39 49
39 52
39 53
39 55
39 56
39 57
39 60
39 61
39 63
39 65
39 66
39 67
39 68
39 69
39 71
39 72
39 75
39 76
40 41
40 43
40 48
40 49
40 50
40 52
40 53
40 54
40 57
40 60
40 64
40 65
40 66
40 68
40 69
40 70
40 72
40 74
40 75
40 76
40 79
41 44
41 47
41 48
41 50
41 52
41 53
41 55
41 58
41 59
41 63
41 64
41 69
41 71
41 73
41 78
42 43
42 48
42 51
42 52
42 57
42 59
42 60
42 63
42 64
42 65
42 66
42 67
42 70
42 71
42 72
42 79
43 44
43 48
43 50
43 51
43 53
43 54
43 55
43 57
43 58
43 61
43 63
43 64
43 65
43 66
43 68
43 69
43 72
43 74
43 75
43 76
43 77
43 79
44 46
44 48
44 50
44 55
44 56
44 59
44 62
44 63
44 64
44 65
44 67
44 69
44 70
44 72
44 74
44 75
44 77
45 47
45 48
45 51
45 52
45 53
45 54
45 57
45 59
45 61
45 62
45 63
45 64
45 65
45 67
45 68
45 69
45 72
45 73
45 74
45 75
45 76
45 77
46 47
46 48
46 49
46 50
46 52
46 54
46 55
46 56
46 57
46 59
46 60
46 61
46 63
46 65
46 68
46 70
46 71
46 73
46 75
46 76
47 48
47 51
47 52
47 58
47 59
47 63
47 64
47 70
47 72
47 73
47 76
47 77
47 78
47 79
48 49
48 51
48 53
48 55
48 57
48 60
48 61
48 62
48 63
48 64
48 65
48 66
48 69
48 70
48 72
48 73
48 75
48 76
48 78
48 79
49 50
49 54
49 58
49 62
49 63
49 65
49 68
49 69
49 72
49 74
49 75
49 76
49 78
49 79
50 52
50 53
50 54
50 55
50 66
50 67
50 69
50 70
50 71
50 72
50 73
50 74
50 77
51 52
51 53
51 54
51 57
51 58
51 60
51 64
51 65
51 67
51 70
51 72
51 74
51 76
51 78
51 79
52 53
52 59
52 60
52 62
52 63
52 65
52 67
52 69
52 71
52 72
52 78
52 79
53 62
53 68
53 69
53 71
53 75
53 76
53 79
54 55
54 56
54 57
54 58
54 59
54 60
54 61
54 63
54 64
54 65
54 66
54 68
54 69
54 71
54 74
54 75
54 78
55 57
55 61
55 62
55 63
55 64
55 67
55 69
55 70
55 71
55 74
55 79
56 57
56 58
56 59
56 61
56 62
56 63
56 64
56 65
56 67
56 72
56 76
57 59
57 62
57 63
57 64
57 65
57 66
57 69
57 72
57 75
57 76
57 78
57 79
58 59
58 60
58 63
58 67
58 68
58 70
58 73
58 75
58 78
59 61
59 66
59 67
59 72
59 73
59 74
59 76
59 77
59 79
60 61
60 62
60 66
60 68
60 69
60 70
60 71
60 72
60 76
60 77
60 78
61 62
61 63
61 65
61 66
61 67
61 68
61 70
61 72
61 73
61 74
61 76
61 77
61 78
61 79
62 64
62 65
62 67
62 68
62 74
62 75
62 76
62 79
63 64
63 65
63 67
63 68
63 69
63 70
63 73
63 77
63 78
63 79
64 65
64 66
64 68
64 74
64 75
64 76
64 78
64 79
65 67
65 68
65 70
65 73
65 75
65 77
65 78
65 79
66 69
66 72
66 73
66 75
66 76
66 77
66 78
66 79
67 68
67 71
67 74
67 76
67 77
68 70
68 72
68 73
68 75
68 76
68 77
69 71
69 72
69 73
69 74
69 75
69 76
69 79
70 71
70 72
70 74
70 75
70 77
70 78
71 72
71 73
71 75
71 77
71 79
72 73
72 75
73 74
74 77
74 79
75 76
75 79
76 79
77 78
29 32 34 79 66 60 24 18 5 43 68 78 58 52 37 19 67 10 54 22 59 48 44 73
56 13 53 2 71 25 1 76 40 35 64 26 17 8 46 14 39 47 74 31 63 69 70 65
27 15 33 16 41 28 6 57 51 23 77 30 50 3 72 61 9 20 42 7 55 49 36 0
21 62 75 4 45 11 12 38
